unsat
(forall ((A (_ BitVec 21))
         (B (_ BitVec 18))
         (C (_ BitVec 54))
         (D (_ BitVec 1))
         (E (_ BitVec 21))
         (F (_ BitVec 17))
         (G (_ BitVec 1))
         (H (_ BitVec 21))
         (I (_ BitVec 1))
         (J (_ BitVec 3))
         (K (_ BitVec 1))
         (L (_ BitVec 4))
         (M (_ BitVec 1))
         (N (_ BitVec 1))
         (O (_ BitVec 1))
         (P (_ BitVec 8))
         (Q (_ BitVec 1))
         (R (_ BitVec 8))
         (S (_ BitVec 40))
         (T (_ BitVec 21))
         (U (_ BitVec 21))
         (V (_ BitVec 1))
         (W (_ BitVec 21))
         (X (_ BitVec 1))
         (Y (_ BitVec 21))
         (Z (_ BitVec 21))
         (A1 (_ BitVec 21))
         (B1 (_ BitVec 21))
         (C1 (_ BitVec 8))
         (D1 (_ BitVec 17))
         (E1 (_ BitVec 1))
         (F1 (_ BitVec 21))
         (G1 (_ BitVec 63))
         (H1 (_ BitVec 40))
         (I1 (_ BitVec 32))
         (J1 (_ BitVec 32))
         (K1 (_ BitVec 1))
         (L1 (_ BitVec 21))
         (M1 (_ BitVec 21))
         (N1 (_ BitVec 21))
         (O1 (_ BitVec 21))
         (P1 (_ BitVec 21))
         (Q1 (_ BitVec 32))
         (R1 (_ BitVec 1))
         (S1 (_ BitVec 1))
         (T1 (_ BitVec 40))
         (U1 (_ BitVec 32))
         (V1 (_ BitVec 1)))
  (! (let ((a!1 (not (= (concat #b0 ((_ extract 40 21) G1))
                        (bvmul #b111111111111111111111 ((_ extract 62 42) G1)))))
           (a!2 (= ((_ extract 20 20)
                     (bvmul #b111111111111111111111 ((_ extract 20 0) G1)))
                   #b1))
           (a!3 (= (bvmul #b111111111111111111 (concat ((_ extract 16 16) F) F))
                   (concat ((_ extract 16 16) D1) D1)))
           (a!5 (not (= (concat #b0 ((_ extract 52 36) C))
                        (bvmul #b111111111111111111 ((_ extract 35 18) C)))))
           (a!7 (or (= J #b011)
                    (not ((_ bit2bool 53) C))
                    (not (= ((_ extract 53 18) C) ((_ extract 35 0) C)))))
           (a!8 (or (= O #b1)
                    (not (= E1 #b1))
                    (not (= ((_ extract 2 1) J) #b00))))
           (a!9 (or (= ((_ extract 5 5) C1) ((_ extract 5 5) P))
                    (= ((_ extract 3 3) (bvadd #x2 L)) #b0)))
           (a!10 (or (= ((_ extract 1 1) C1) ((_ extract 1 1) P))
                     (= ((_ extract 3 3) (bvadd #x6 L)) #b0)))
           (a!11 (= (concat ((_ extract 39 39) S) ((_ extract 39 20) S))
                    (bvmul #b111111111111111111111
                           (concat ((_ extract 19 19) S) ((_ extract 19 0) S)))))
           (a!12 (not (= A1
                         (bvmul #b111111111111111111111 ((_ extract 62 42) G1)))))
           (a!13 (bvadd (bvmul #b11111111111111111
                               (concat ((_ extract 31 31) J1)
                                       ((_ extract 31 16) J1)))
                        (concat ((_ extract 31 31) I1) ((_ extract 31 16) I1))))
           (a!14 (not (= C (concat ((_ extract 53 18) C) #b000000000000000000))))
           (a!15 (bvadd (bvmul #b11111111111111111
                               (concat ((_ extract 15 15) J1)
                                       ((_ extract 15 0) J1)))
                        (concat ((_ extract 15 15) I1) ((_ extract 15 0) I1))))
           (a!18 (or (= ((_ extract 2 2) C1) ((_ extract 2 2) P))
                     (= ((_ extract 3 3) (bvadd #x5 L)) #b0)))
           (a!19 (or (= ((_ extract 6 6) C1) ((_ extract 6 6) P))
                     (= ((_ extract 3 3) (bvadd #x1 L)) #b0)))
           (a!20 (= (concat ((_ extract 16 16) D1) D1)
                    (bvmul #b111111111111111111
                           (concat ((_ extract 16 16) F) F))))
           (a!22 (or (not (= N #b1))
                     (not (= O #b0))
                     (= ((_ extract 3 3) (bvadd #x1 L)) #b0)
                     (not (= I #b0))))
           (a!24 (not (= (concat #b0 ((_ extract 52 36) C))
                         (bvmul #b111111111111111111 ((_ extract 53 36) C)))))
           (a!25 (or (not (= I #b1))
                     (not ((_ bit2bool 3) L))
                     (not (= ((_ extract 1 1) J) #b1))))
           (a!26 (or (= ((_ extract 2 2) C1) ((_ extract 2 2) P))
                     (= ((_ extract 3 3) (bvadd #x1 L)) #b0)))
           (a!27 (not (= (concat #b0 ((_ extract 61 42) G1))
                         (bvmul #b111111111111111111111 ((_ extract 41 21) G1)))))
           (a!30 (or (= ((_ extract 5 5) C1) ((_ extract 5 5) P))
                     (= ((_ extract 3 3) (bvadd #x1 L)) #b0)))
           (a!31 (or (= ((_ extract 2 2) C1) ((_ extract 2 2) P))
                     (= ((_ extract 3 3) (bvadd #x2 L)) #b0)))
           (a!32 (or (= ((_ extract 3 3) C1) ((_ extract 3 3) P))
                     (= ((_ extract 3 3) (bvadd #x1 L)) #b0)))
           (a!33 (or (= J #b011)
                     (not ((_ bit2bool 62) G1))
                     (not (= ((_ extract 62 21) G1) ((_ extract 41 0) G1)))))
           (a!34 (= ((_ extract 20 3)
                      (bvmul #b111111111111111111111 ((_ extract 41 21) G1)))
                    #b000000000000000000))
           (a!36 (not (= A1
                         (bvmul #b111111111111111111111 ((_ extract 41 21) G1)))))
           (a!37 (not (= (bvmul #b111111111111111111111 ((_ extract 41 21) G1))
                         (concat #b0 ((_ extract 61 42) G1)))))
           (a!38 (or (= ((_ extract 4 4) C1) ((_ extract 4 4) P))
                     (= ((_ extract 3 3) (bvadd #x3 L)) #b0)))
           (a!39 (bvadd #b00001010000100001
                        (bvmul #b11111111111111111
                               (concat ((_ extract 31 31) J1)
                                       ((_ extract 31 16) J1)))))
           (a!40 (bvadd #b00001010000011110
                        (bvmul #b11111111111111111
                               (concat ((_ extract 31 31) J1)
                                       ((_ extract 31 16) J1)))))
           (a!44 (or (not (= I #b1))
                     (not (= M #b1))
                     (= ((_ extract 3 3) (bvadd #x5 L)) #b0)))
           (a!45 (or (not (= E1 #b1))
                     (not (= M #b1))
                     (= ((_ extract 3 3) (bvadd #x5 L)) #b0)))
           (a!46 (or (not (= O #b1))
                     (not (= I #b1))
                     (= ((_ extract 3 3) (bvadd #x5 L)) #b0)))
           (a!47 (or (not (= E1 #b1))
                     (not (= N #b1))
                     (= ((_ extract 3 3) (bvadd #x4 L)) #b0)))
           (a!49 (= ((_ extract 19 19)
                      (bvmul #b111111111111111111111 ((_ extract 41 21) G1)))
                    #b1))
           (a!50 (= ((_ extract 17 0) C)
                    (bvadd (concat ((_ extract 16 16) D1) D1)
                           (concat ((_ extract 16 16) F) F))))
           (a!51 (= (concat #b0 ((_ extract 61 42) G1))
                    (bvmul #b111111111111111111111
                           (concat ((_ extract 19 19) S) ((_ extract 19 0) S)))))
           (a!52 (= (bvmul #b111111111111111111111
                           (concat ((_ extract 19 19) S) ((_ extract 19 0) S)))
                    T))
           (a!53 (= (bvmul #b111111111111111111111
                           (concat ((_ extract 19 19) S) ((_ extract 19 0) S)))
                    L1))
           (a!54 (not (= (bvmul #b111111111111111111111 ((_ extract 62 42) G1))
                         A1)))
           (a!55 (= (concat ((_ extract 19 19) S) ((_ extract 19 0) S))
                    (bvmul #b111111111111111111111
                           (concat ((_ extract 39 39) S) ((_ extract 39 20) S)))))
           (a!56 (or (= ((_ extract 7 7) C1) #b0)
                     (not ((_ bit2bool 41) G1))
                     (not (= ((_ extract 41 0) G1) ((_ extract 62 21) G1)))))
           (a!58 (or (= ((_ extract 3 3) (bvadd #x2 L)) #b0)
                     (not ((_ bit2bool 41) G1))
                     (not (= ((_ extract 62 21) G1) ((_ extract 41 0) G1)))))
           (a!60 (= (bvmul #b111111111111111111111
                           (concat ((_ extract 19 19) H1) ((_ extract 19 0) H1)))
                    (concat #b0 ((_ extract 40 21) G1))))
           (a!61 (= (bvmul #b111111111111111111111
                           (concat ((_ extract 19 19) H1) ((_ extract 19 0) H1)))
                    A1))
           (a!62 (= (bvmul #b111111111111111111111
                           (concat ((_ extract 19 19) H1) ((_ extract 19 0) H1)))
                    (concat #b0 ((_ extract 61 42) G1))))
           (a!64 (or (= J #b011)
                     (not (= I #b1))
                     (not ((_ bit2bool 53) C))
                     (not (= ((_ extract 17 0) C) ((_ extract 35 18) C)))))
           (a!66 ((_ extract 17 17)
                   (bvadd (concat ((_ extract 16 16) D1) D1)
                          (concat ((_ extract 16 16) F) F))))
           (a!67 ((_ extract 17 3)
                   (bvmul #b111111111111111111 (concat ((_ extract 16 16) F) F))))
           (a!68 (not (= (concat #b0 ((_ extract 61 42) G1)) A1)))
           (a!69 (= ((_ extract 20 20)
                      (bvmul #b111111111111111111111 ((_ extract 41 21) G1)))
                    #b1))
           (a!71 (not (= L1
                         (bvmul #b111111111111111111111 ((_ extract 62 42) G1)))))
           (a!72 (= (concat #b0 ((_ extract 61 42) G1))
                    (bvmul #b111111111111111111111
                           (concat ((_ extract 19 19) H1) ((_ extract 19 0) H1)))))
           (a!74 (not (= (bvmul #b111111111111111111111 ((_ extract 62 42) G1))
                         (concat #b0 ((_ extract 61 42) G1)))))
           (a!75 (or (= J #b011)
                     (not (= I #b1))
                     (not ((_ bit2bool 61) G1))
                     (not (= ((_ extract 40 21) G1) ((_ extract 19 0) G1))))))
     (let ((a!4 (or (= J #b011)
                    (= O #b1)
                    (not ((_ bit2bool 53) C))
                    (not ((_ bit2bool 35) C))
                    (= ((_ extract 3 3) (bvadd #x1 L)) #b0)
                    (not a!3)))
           (a!6 (or (not ((_ bit2bool 35) C))
                    (= ((_ extract 3 3) (bvadd #x1 L)) #b0)
                    a!5
                    (not (= ((_ extract 35 18) C) ((_ extract 17 0) C)))))
           (a!16 ((_ extract 16 16)
                   (bvadd (concat ((_ extract 16 16) a!13) a!13)
                          (concat #b1 a!15))))
           (a!21 (or (= O #b1)
                     (not ((_ bit2bool 17) C))
                     (= ((_ extract 3 3) (bvadd #x1 L)) #b0)
                     (not a!20)))
           (a!23 (or (= J #b011)
                     (not (= I #b1))
                     (not ((_ bit2bool 35) C))
                     (not (= D1 a!13))
                     (not (= ((_ extract 16 0) C) a!13))))
           (a!28 (or (= J #b011)
                     (not ((_ bit2bool 41) G1))
                     (not (= ((_ extract 61 42) G1) ((_ extract 19 0) G1)))
                     a!27))
           (a!29 (or (not (= M #b1))
                     (not ((_ bit2bool 59) G1))
                     (not ((_ bit2bool 3) L))
                     a!12
                     (not (= ((_ extract 62 42) G1) ((_ extract 41 21) G1)))))
           (a!35 (or (= J #b011)
                     ((_ bit2bool 3) S)
                     (not ((_ bit2bool 41) G1))
                     (not (= ((_ extract 20 0) G1) ((_ extract 41 21) G1)))
                     (not a!34)))
           (a!41 (bvadd (bvmul #b111111111111111111
                               (concat ((_ extract 16 16) F) F))
                        (bvmul #b111111111111111111 (concat #b1 a!40))))
           (a!48 (or (not ((_ bit2bool 62) G1))
                     (not ((_ bit2bool 41) G1))
                     (not (= ((_ extract 20 0) G1) ((_ extract 41 21) G1)))
                     a!12))
           (a!57 (or (not ((_ bit2bool 45) G1))
                     (not (= ((_ extract 20 0) G1) ((_ extract 62 42) G1)))
                     a!12
                     a!1))
           (a!59 (or (not ((_ bit2bool 17) C))
                     (= ((_ extract 3 3) (bvadd #x2 L)) #b0)
                     (not a!20)))
           (a!63 (or (not ((_ bit2bool 17) C))
                     (= ((_ extract 3 3) (bvadd #x3 L)) #b0)
                     (not a!20)))
           (a!65 (or (= J #b011)
                     (not ((_ bit2bool 45) G1))
                     a!1
                     (not (= ((_ extract 62 42) G1) ((_ extract 20 0) G1)))))
           (a!73 (or (= J #b011)
                     (not (= ((_ extract 62 21) G1) ((_ extract 41 0) G1)))
                     (not ((_ bit2bool 19) H1))
                     (not a!72))))
     (let ((a!17 (or (= J #b011)
                     (not (= I #b1))
                     ((_ bit2bool 26) C)
                     (not (= ((_ extract 16 3) a!13) #b00000000000000))
                     a!14
                     (not (= D1 a!13))
                     (= a!16 #b1)
                     (not (= ((_ extract 16 16) a!15) #b1))))
           (a!42 (or (= J #b011)
                     (not (= I #b1))
                     ((_ bit2bool 4) F)
                     ((_ bit2bool 0) C)
                     ((_ bit2bool 1) C)
                     ((_ bit2bool 2) C)
                     ((_ bit2bool 3) C)
                     ((_ bit2bool 39) C)
                     (not (= ((_ extract 16 3) a!39) #b00000000000000))
                     (not (= (concat #b0 F) a!41))))
           (a!43 (or (= J #b011)
                     (not (= I #b1))
                     ((_ bit2bool 52) C)
                     (= ((_ extract 16 16) F) #b1)
                     (not a!3)
                     (not (= (concat #b0 F) a!41))))
           (a!70 (or (= J #b011)
                     (not (= D1 ((_ extract 34 18) C)))
                     (not (= (concat #b0 F) a!41))
                     (not (= F ((_ extract 16 0) C))))))
     (let ((a!76 (and (or (= L1 #b000000000000000000000)
                          (not ((_ bit2bool 20) G1))
                          a!1
                          a!2)
                      (or (= J #b011) (not (= O #b1)) (not (= I #b1)))
                      (or (= J #b000) (= J #b011) (not (= O #b1)))
                      (or (not (= N #b1))
                          (not (= M #b1))
                          (= ((_ extract 0 0) J) #b1))
                      (or (not (= M #b1)) (not (= J #b000)))
                      (or (= J #b011)
                          (not (= M #b1))
                          (not ((_ bit2bool 0) J))
                          (not ((_ bit2bool 1) J)))
                      (or (= J #b011) (not (= I #b1)) (not (= M #b1)))
                      (or (= J #b000) (not (= O #b1)) (not ((_ bit2bool 3) L)))
                      (or (= J #b011)
                          (not (= I #b1))
                          ((_ bit2bool 19) G1)
                          ((_ bit2bool 21) G1)
                          ((_ bit2bool 22) G1)
                          ((_ bit2bool 23) G1)
                          ((_ bit2bool 24) G1)
                          ((_ bit2bool 25) G1)
                          ((_ bit2bool 26) G1)
                          ((_ bit2bool 27) G1)
                          ((_ bit2bool 28) G1)
                          ((_ bit2bool 29) G1)
                          ((_ bit2bool 30) G1)
                          ((_ bit2bool 31) G1)
                          ((_ bit2bool 32) G1)
                          ((_ bit2bool 33) G1)
                          ((_ bit2bool 34) G1)
                          ((_ bit2bool 35) G1)
                          ((_ bit2bool 36) G1)
                          ((_ bit2bool 37) G1)
                          ((_ bit2bool 38) G1)
                          ((_ bit2bool 39) G1)
                          ((_ bit2bool 40) G1)
                          (not ((_ bit2bool 62) G1)))
                      a!4
                      a!6
                      a!7
                      a!8
                      a!9
                      a!10
                      (or (not (= M #b1))
                          (not ((_ bit2bool 3) L))
                          (not a!11)
                          (not ((_ bit2bool 41) G1))
                          a!12)
                      (or (not (= E1 #b1))
                          (not (= M #b1))
                          (not ((_ bit2bool 3) L)))
                      a!17
                      a!18
                      a!19
                      (or (not (= I #b1))
                          ((_ bit2bool 16) F)
                          (not ((_ bit2bool 3) L))
                          (not ((_ bit2bool 35) C)))
                      (or (not ((_ bit2bool 3) L))
                          (not (= N #b1))
                          (not (= E1 #b1)))
                      (or ((_ bit2bool 6) P)
                          ((_ bit2bool 34) C)
                          ((_ bit2bool 52) C)
                          (not ((_ bit2bool 17) C))
                          (= ((_ extract 6 6) C1) ((_ extract 6 6) P)))
                      (or (= O #b1)
                          (not ((_ bit2bool 3) L))
                          (= ((_ extract 2 2) C1) ((_ extract 2 2) P)))
                      a!21
                      (or (not (= J #b000)) (not (= O #b0)))
                      a!22
                      a!23
                      (or (= J #b011)
                          (not (= I #b1))
                          ((_ bit2bool 17) C)
                          (not ((_ bit2bool 35) C))
                          a!24)
                      (or (not ((_ bit2bool 3) L))
                          (not ((_ bit2bool 2) C1))
                          (= ((_ extract 2 2) P) #b1))
                      a!25
                      (or (= ((_ extract 2 1) J) #b00)
                          (= J #b011)
                          (not (= I #b1)))
                      a!26
                      a!28
                      a!29
                      (or (= J #b011)
                          (not (= I #b1))
                          ((_ bit2bool 20) G1)
                          (not ((_ bit2bool 62) G1))
                          (not ((_ bit2bool 41) G1)))
                      (or (not ((_ bit2bool 3) L))
                          (= ((_ extract 4 4) C1) ((_ extract 4 4) P)))
                      a!30
                      (or (= ((_ extract 7 7) C1) ((_ extract 7 7) P))
                          (not ((_ bit2bool 3) L)))
                      (or (= K #b0) (= G #b1))
                      a!31
                      (or (not ((_ bit2bool 17) C)) (not (= O #b1)) (= J #b011))
                      a!32
                      (or (not ((_ bit2bool 3) L))
                          (= ((_ extract 1 1) C1) ((_ extract 1 1) P)))
                      a!33
                      a!35
                      (or (not (= M #b1))
                          ((_ bit2bool 62) G1)
                          (not ((_ bit2bool 3) L))
                          (not ((_ bit2bool 41) G1))
                          a!36
                          a!37)
                      (or ((_ bit2bool 34) C)
                          (not ((_ bit2bool 17) C))
                          (= ((_ extract 5 5) C1) #b0)
                          (= ((_ extract 52 52) C) #b1))
                      a!38
                      (or (not ((_ bit2bool 0) L))
                          (not ((_ bit2bool 3) L))
                          (= ((_ extract 5 5) C1) ((_ extract 5 5) P)))
                      (or (not (= N #b1))
                          (not (= M #b1))
                          (not ((_ bit2bool 0) L)))
                      (or (not ((_ bit2bool 0) L))
                          (not (= E1 #b1))
                          (not (= I #b1)))
                      a!42
                      a!43
                      (or (not ((_ bit2bool 0) L))
                          (not (= M #b1))
                          (not (= O #b1)))
                      (or (= J #b011)
                          (= ((_ extract 1 1) C1) ((_ extract 1 1) P)))
                      (= ((_ extract 0 0) C1) ((_ extract 0 0) P))
                      a!44
                      a!45
                      a!46
                      a!47
                      a!48
                      (or (not ((_ bit2bool 3) L))
                          (= ((_ extract 2 2) C1) #b1)
                          (= ((_ extract 2 2) P) #b0))
                      (or (not ((_ bit2bool 3) L))
                          (= ((_ extract 6 6) C1) ((_ extract 6 6) P)))
                      (or (= J #b011) (not ((_ bit2bool 20) G1)) a!27 a!49)
                      (or (not (= M #b1))
                          (not ((_ bit2bool 3) L))
                          (not ((_ bit2bool 35) C))
                          (not a!50))
                      (or (not (= O #b1))
                          (not (= E1 #b1))
                          (not ((_ bit2bool 19) S))
                          ((_ bit2bool 62) G1)
                          (not ((_ bit2bool 0) L))
                          (not ((_ bit2bool 3) L))
                          (not a!51)
                          (not a!52)
                          (not a!53)
                          (not (= L1 A1)))
                      (or (not (= M #b1))
                          (not ((_ bit2bool 3) L))
                          (not ((_ bit2bool 41) G1))
                          (= ((_ extract 45 45) G1) #b1)
                          a!54)
                      (or (= J #b011)
                          (not (= I #b1))
                          (not ((_ bit2bool 62) G1))
                          (not ((_ bit2bool 41) G1))
                          (not a!55))
                      a!56
                      (or (= J #b011)
                          (= ((_ extract 41 41) G1) #b1)
                          (not ((_ bit2bool 20) G1))
                          (= ((_ extract 61 61) G1) #b1))
                      a!57
                      a!58
                      a!59
                      (or (not (= M #b1))
                          ((_ bit2bool 62) G1)
                          (not ((_ bit2bool 3) L))
                          (not a!60)
                          (not a!61)
                          (not a!62)
                          (not ((_ bit2bool 19) H1)))
                      a!63
                      a!64
                      (or (= J #b011)
                          ((_ bit2bool 34) C)
                          (not ((_ bit2bool 17) C))
                          (= ((_ extract 52 52) C) #b1))
                      (or (= J #b011) (not ((_ bit2bool 17) C)) (not a!20))
                      a!65
                      (or (= J #b011)
                          (not (= I #b1))
                          ((_ bit2bool 16) D1)
                          (not ((_ bit2bool 53) C)))
                      (or (= J #b011)
                          (not (= I #b1))
                          ((_ bit2bool 16) D1)
                          ((_ bit2bool 10) C)
                          (not (= a!66 #b1))
                          (not (= a!67 #b000000000000000)))
                      (or (not (= M #b1))
                          ((_ bit2bool 62) G1)
                          (not ((_ bit2bool 3) L))
                          (not ((_ bit2bool 41) G1))
                          (not (= L1 A1))
                          (not (= T L1))
                          a!68
                          a!69)
                      a!70
                      (or (not (= M #b1))
                          (not ((_ bit2bool 51) G1))
                          (not ((_ bit2bool 3) L))
                          (= ((_ extract 41 41) G1) #b1)
                          a!1
                          (not (= L1 A1))
                          a!71)
                      (or (not ((_ bit2bool 2) L))
                          (= ((_ extract 3 3) C1) ((_ extract 3 3) P)))
                      (or (not (= O #b1))
                          (not (= E1 #b1))
                          (not ((_ bit2bool 53) G1))
                          (not ((_ bit2bool 0) L))
                          (not ((_ bit2bool 3) L))
                          a!12
                          (not (= L1 A1)))
                      a!73
                      (or (= J #b011)
                          (not (= I #b1))
                          (= ((_ extract 20 20) G1) #b1)
                          a!74
                          (not ((_ bit2bool 41) G1)))
                      (or (= J #b011)
                          (not (= I #b1))
                          (not ((_ bit2bool 36) S))
                          ((_ bit2bool 58) G1))
                      a!75)))
       (= (INV!slice!1 A
                       B
                       C
                       D
                       E
                       F
                       G
                       H
                       I
                       J
                       K
                       L
                       M
                       N
                       O
                       P
                       Q
                       R
                       S
                       T
                       U
                       V
                       W
                       X
                       Y
                       Z
                       A1
                       B1
                       C1
                       D1
                       E1
                       F1
                       G1
                       H1
                       I1
                       J1
                       K1
                       L1
                       M1
                       N1
                       O1
                       P1
                       Q1
                       R1
                       S1
                       T1
                       U1
                       V1)
          a!76)))))
     :weight 0))
